db/data/2265329412600370021459137052429823963.z3.out
-------------------
2500.183961992
